
Gurobi 10.0.1 (win64) logging started Sat Jun 10 18:09:35 2023

Set parameter LogFile to value "results/log/Fattahi_setup_12_modified_deadline.log"
Gurobi Optimizer version 10.0.1 build v10.0.1rc0 (win64)

CPU model: AMD Ryzen 7 3700X 8-Core Processor, instruction set [SSE2|AVX|AVX2]
Thread count: 8 physical cores, 16 logical processors, using up to 16 threads

Optimize a model with 354 rows, 343 columns and 1336 nonzeros
Model fingerprint: 0xbb631989
Variable types: 0 continuous, 343 integer (303 binary)
Coefficient statistics:
  Matrix range     [1e+00, 1e+09]
  Objective range  [1e+00, 1e+00]
  Bounds range     [1e+00, 1e+00]
  RHS range        [1e+00, 3e+09]
Warning: Model contains large matrix coefficients
Warning: Model contains large rhs
         Consider reformulating model or setting NumericFocus parameter
         to avoid numerical issues.
Presolve removed 97 rows and 209 columns
Presolve time: 0.00s
Presolved: 257 rows, 134 columns, 1172 nonzeros
Variable types: 0 continuous, 134 integer (94 binary)

Root relaxation: objective 1.246000e+03, 48 iterations, 0.00 seconds (0.00 work units)

    Nodes    |    Current Node    |     Objective Bounds      |     Work
 Expl Unexpl |  Obj  Depth IntInf | Incumbent    BestBd   Gap | It/Node Time

     0     0 1246.00003    0   21          - 1246.00003      -     -    0s
H    0     0                    3210.0000000 1246.00003  61.2%     -    0s
H    0     0                    2663.0000000 1246.00003  53.2%     -    0s
     0     0 1246.00003    0   24 2663.00000 1246.00003  53.2%     -    0s
H    0     0                    2487.0000000 1255.00000  49.5%     -    0s
     0     0 1255.00000    0   21 2487.00000 1255.00000  49.5%     -    0s
H    0     0                    2303.0000000 1272.00000  44.8%     -    0s
     0     0 1274.00000    0   24 2303.00000 1274.00000  44.7%     -    0s
H    0     0                    1918.0000000 1281.00000  33.2%     -    0s
     0     0 1281.00000    0   19 1918.00000 1281.00000  33.2%     -    0s
H    0     0                    1878.0000000 1285.00001  31.6%     -    0s
H    0     0                    1841.0000000 1285.00001  30.2%     -    0s
     0     0 1286.00000    0   20 1841.00000 1286.00000  30.1%     -    0s
     0     0 1296.00002    0   25 1841.00000 1296.00002  29.6%     -    0s
     0     0 1296.00002    0   17 1841.00000 1296.00002  29.6%     -    0s
     0     0 1296.00002    0   17 1841.00000 1296.00002  29.6%     -    0s
H    0     0                    1839.0000000 1296.00002  29.5%     -    0s
     0     2 1296.00002    0   17 1839.00000 1296.00002  29.5%     -    0s
H   82    66                    1757.0000000 1296.00002  26.2%   5.1    0s
H  192   128                    1737.0000000 1296.00002  25.4%   4.2    0s
H  198   128                    1720.0000000 1296.00002  24.7%   4.2    0s
H  260   174                    1680.0000000 1296.00002  22.9%   3.9    0s
* 2803   672              23    1620.0000000 1364.91382  15.7%   3.3    0s

Cutting planes:
  Learned: 7
  Implied bound: 38
  MIR: 4
  Flow cover: 26
  Inf proof: 118

Explored 17929 nodes (59693 simplex iterations) in 0.64 seconds (0.46 work units)
Thread count was 16 (of 16 available processors)

Solution count 10: 1620 1680 1720 ... 2303

Optimal solution found (tolerance 1.00e-04)
Best objective 1.620000000000e+03, best bound 1.620000000000e+03, gap 0.0000%
Warning: variable name "y[job:0, stage:0, machine:1]" has a space
Warning: constraint name "precedence between 1,0 to 0,0 if x_[j,l,h,z,i]=1" has a space
Warning: to let Gurobi read it back, use rlp format
Warning: variable name "y[job:0, stage:0, machine:1]" has a space
Warning: constraint name "precedence between 1,0 to 0,0 if x_[j,l,h,z,i]=1" has a space
Warning: default variable names used to write mps file
Warning: default constraint names used to write mps file
Warning: variable name "y[job:0, stage:0, machine:1]" has a space
Warning: default variable names used to write solution file
